p edge 150 4470
e 1 7
e 1 9
e 1 13
e 1 14
e 1 18
e 1 21
e 1 22
e 1 23
e 1 25
e 1 30
e 1 33
e 1 34
e 1 35
e 1 40
e 1 42
e 1 43
e 1 45
e 1 47
e 1 48
e 1 50
e 1 51
e 1 53
e 1 55
e 1 57
e 1 58
e 1 63
e 1 64
e 1 66
e 1 69
e 1 71
e 1 72
e 1 74
e 1 79
e 1 81
e 1 87
e 1 88
e 1 89
e 1 91
e 1 95
e 1 96
e 1 98
e 1 105
e 1 106
e 1 109
e 1 115
e 1 116
e 1 121
e 1 122
e 1 123
e 1 126
e 1 128
e 1 129
e 1 131
e 1 132
e 1 133
e 1 136
e 1 141
e 1 143
e 1 144
e 1 148
e 1 149
e 1 150
e 2 8
e 2 9
e 2 10
e 2 13
e 2 29
e 2 30
e 2 31
e 2 33
e 2 41
e 2 43
e 2 44
e 2 47
e 2 48
e 2 57
e 2 59
e 2 60
e 2 62
e 2 63
e 2 66
e 2 70
e 2 75
e 2 76
e 2 78
e 2 81
e 2 85
e 2 88
e 2 90
e 2 91
e 2 98
e 2 101
e 2 102
e 2 103
e 2 104
e 2 105
e 2 106
e 2 108
e 2 113
e 2 114
e 2 115
e 2 127
e 2 128
e 2 130
e 2 131
e 2 137
e 2 143
e 2 144
e 2 146
e 2 148
e 3 6
e 3 7
e 3 8
e 3 9
e 3 10
e 3 15
e 3 16
e 3 17
e 3 22
e 3 23
e 3 24
e 3 27
e 3 28
e 3 34
e 3 36
e 3 40
e 3 41
e 3 43
e 3 44
e 3 45
e 3 47
e 3 48
e 3 50
e 3 51
e 3 55
e 3 57
e 3 60
e 3 62
e 3 63
e 3 64
e 3 68
e 3 69
e 3 73
e 3 74
e 3 80
e 3 82
e 3 84
e 3 85
e 3 86
e 3 89
e 3 90
e 3 91
e 3 93
e 3 94
e 3 98
e 3 99
e 3 100
e 3 101
e 3 108
e 3 109
e 3 110
e 3 114
e 3 115
e 3 116
e 3 123
e 3 124
e 3 128
e 3 133
e 3 134
e 3 135
e 3 136
e 3 138
e 3 139
e 3 140
e 3 141
e 3 142
e 3 145
e 3 147
e 3 148
e 3 149
e 3 150
e 4 5
e 4 10
e 4 12
e 4 15
e 4 16
e 4 20
e 4 22
e 4 24
e 4 28
e 4 34
e 4 35
e 4 37
e 4 38
e 4 40
e 4 43
e 4 44
e 4 47
e 4 50
e 4 51
e 4 56
e 4 59
e 4 60
e 4 61
e 4 62
e 4 67
e 4 74
e 4 79
e 4 80
e 4 83
e 4 86
e 4 87
e 4 93
e 4 95
e 4 97
e 4 98
e 4 100
e 4 104
e 4 109
e 4 111
e 4 112
e 4 117
e 4 119
e 4 120
e 4 121
e 4 122
e 4 124
e 4 126
e 4 128
e 4 129
e 4 131
e 4 143
e 4 145
e 4 146
e 4 150
e 5 9
e 5 12
e 5 18
e 5 20
e 5 25
e 5 29
e 5 33
e 5 35
e 5 45
e 5 47
e 5 48
e 5 51
e 5 53
e 5 54
e 5 55
e 5 58
e 5 59
e 5 62
e 5 63
e 5 64
e 5 66
e 5 67
e 5 70
e 5 76
e 5 77
e 5 79
e 5 81
e 5 82
e 5 83
e 5 89
e 5 90
e 5 94
e 5 96
e 5 98
e 5 102
e 5 103
e 5 110
e 5 112
e 5 113
e 5 114
e 5 115
e 5 117
e 5 118
e 5 120
e 5 123
e 5 128
e 5 130
e 5 131
e 5 132
e 5 142
e 5 143
e 5 145
e 5 148
e 6 14
e 6 16
e 6 19
e 6 21
e 6 25
e 6 27
e 6 28
e 6 39
e 6 44
e 6 49
e 6 51
e 6 57
e 6 58
e 6 59
e 6 61
e 6 63
e 6 64
e 6 65
e 6 66
e 6 67
e 6 70
e 6 71
e 6 74
e 6 76
e 6 78
e 6 79
e 6 81
e 6 83
e 6 84
e 6 88
e 6 99
e 6 102
e 6 104
e 6 107
e 6 109
e 6 111
e 6 112
e 6 114
e 6 115
e 6 117
e 6 120
e 6 122
e 6 123
e 6 124
e 6 128
e 6 131
e 6 133
e 6 134
e 6 137
e 6 138
e 6 139
e 6 140
e 6 147
e 6 148
e 7 9
e 7 10
e 7 13
e 7 17
e 7 18
e 7 22
e 7 23
e 7 24
e 7 25
e 7 27
e 7 29
e 7 30
e 7 33
e 7 34
e 7 38
e 7 39
e 7 40
e 7 41
e 7 42
e 7 44
e 7 47
e 7 48
e 7 53
e 7 54
e 7 55
e 7 56
e 7 57
e 7 61
e 7 65
e 7 67
e 7 68
e 7 70
e 7 73
e 7 75
e 7 77
e 7 78
e 7 81
e 7 84
e 7 85
e 7 86
e 7 87
e 7 89
e 7 91
e 7 92
e 7 94
e 7 95
e 7 97
e 7 98
e 7 100
e 7 101
e 7 102
e 7 104
e 7 107
e 7 109
e 7 111
e 7 116
e 7 119
e 7 121
e 7 123
e 7 126
e 7 127
e 7 128
e 7 132
e 7 134
e 7 136
e 7 140
e 7 142
e 7 144
e 7 147
e 8 17
e 8 18
e 8 19
e 8 21
e 8 22
e 8 30
e 8 32
e 8 36
e 8 38
e 8 39
e 8 41
e 8 45
e 8 46
e 8 47
e 8 49
e 8 50
e 8 51
e 8 53
e 8 63
e 8 66
e 8 67
e 8 69
e 8 71
e 8 74
e 8 75
e 8 78
e 8 80
e 8 81
e 8 84
e 8 85
e 8 89
e 8 90
e 8 91
e 8 92
e 8 93
e 8 94
e 8 98
e 8 99
e 8 100
e 8 105
e 8 106
e 8 108
e 8 109
e 8 110
e 8 111
e 8 112
e 8 113
e 8 114
e 8 117
e 8 119
e 8 120
e 8 121
e 8 122
e 8 126
e 8 127
e 8 128
e 8 132
e 8 133
e 8 134
e 8 136
e 8 138
e 8 141
e 8 142
e 8 146
e 8 149
e 8 150
e 9 10
e 9 12
e 9 16
e 9 17
e 9 22
e 9 29
e 9 34
e 9 39
e 9 40
e 9 42
e 9 44
e 9 45
e 9 46
e 9 50
e 9 52
e 9 53
e 9 54
e 9 55
e 9 57
e 9 58
e 9 61
e 9 62
e 9 75
e 9 79
e 9 80
e 9 84
e 9 85
e 9 86
e 9 87
e 9 89
e 9 90
e 9 91
e 9 92
e 9 95
e 9 99
e 9 100
e 9 106
e 9 107
e 9 111
e 9 114
e 9 115
e 9 118
e 9 121
e 9 122
e 9 127
e 9 131
e 9 136
e 9 140
e 9 141
e 9 142
e 9 143
e 9 144
e 9 146
e 9 147
e 10 12
e 10 17
e 10 19
e 10 22
e 10 30
e 10 36
e 10 39
e 10 40
e 10 41
e 10 44
e 10 46
e 10 50
e 10 51
e 10 54
e 10 61
e 10 64
e 10 65
e 10 66
e 10 67
e 10 68
e 10 70
e 10 74
e 10 78
e 10 85
e 10 86
e 10 88
e 10 89
e 10 90
e 10 91
e 10 95
e 10 98
e 10 101
e 10 103
e 10 106
e 10 107
e 10 115
e 10 121
e 10 122
e 10 124
e 10 125
e 10 128
e 10 130
e 10 131
e 10 132
e 10 134
e 10 137
e 10 141
e 10 146
e 10 147
e 10 149
e 10 150
e 11 13
e 11 15
e 11 17
e 11 22
e 11 25
e 11 26
e 11 30
e 11 31
e 11 33
e 11 35
e 11 37
e 11 39
e 11 42
e 11 46
e 11 48
e 11 51
e 11 52
e 11 53
e 11 54
e 11 58
e 11 63
e 11 64
e 11 68
e 11 70
e 11 76
e 11 77
e 11 81
e 11 82
e 11 84
e 11 88
e 11 89
e 11 93
e 11 97
e 11 98
e 11 99
e 11 101
e 11 102
e 11 103
e 11 105
e 11 112
e 11 117
e 11 122
e 11 123
e 11 125
e 11 130
e 11 131
e 11 137
e 11 138
e 11 141
e 11 144
e 11 147
e 11 148
e 12 14
e 12 15
e 12 16
e 12 19
e 12 27
e 12 32
e 12 34
e 12 36
e 12 37
e 12 39
e 12 40
e 12 41
e 12 42
e 12 44
e 12 48
e 12 52
e 12 53
e 12 55
e 12 57
e 12 59
e 12 60
e 12 61
e 12 69
e 12 70
e 12 72
e 12 74
e 12 75
e 12 79
e 12 86
e 12 88
e 12 89
e 12 90
e 12 92
e 12 93
e 12 94
e 12 97
e 12 102
e 12 104
e 12 106
e 12 109
e 12 110
e 12 112
e 12 114
e 12 116
e 12 117
e 12 119
e 12 120
e 12 121
e 12 125
e 12 129
e 12 131
e 12 134
e 12 135
e 12 144
e 12 149
e 13 15
e 13 16
e 13 19
e 13 25
e 13 26
e 13 27
e 13 35
e 13 36
e 13 37
e 13 39
e 13 44
e 13 46
e 13 48
e 13 49
e 13 55
e 13 56
e 13 58
e 13 60
e 13 61
e 13 62
e 13 64
e 13 65
e 13 66
e 13 71
e 13 73
e 13 75
e 13 77
e 13 78
e 13 79
e 13 80
e 13 87
e 13 88
e 13 89
e 13 95
e 13 97
e 13 98
e 13 100
e 13 102
e 13 104
e 13 106
e 13 108
e 13 109
e 13 110
e 13 111
e 13 117
e 13 118
e 13 119
e 13 120
e 13 123
e 13 133
e 13 134
e 13 135
e 13 137
e 13 140
e 13 144
e 13 146
e 14 18
e 14 19
e 14 20
e 14 22
e 14 23
e 14 24
e 14 28
e 14 32
e 14 33
e 14 37
e 14 43
e 14 50
e 14 52
e 14 53
e 14 54
e 14 56
e 14 58
e 14 61
e 14 62
e 14 63
e 14 64
e 14 67
e 14 69
e 14 71
e 14 72
e 14 73
e 14 74
e 14 75
e 14 77
e 14 80
e 14 83
e 14 86
e 14 87
e 14 90
e 14 95
e 14 96
e 14 97
e 14 99
e 14 101
e 14 102
e 14 103
e 14 104
e 14 106
e 14 108
e 14 109
e 14 112
e 14 120
e 14 121
e 14 128
e 14 129
e 14 134
e 14 136
e 14 137
e 14 138
e 14 140
e 14 141
e 14 142
e 14 148
e 15 16
e 15 20
e 15 22
e 15 23
e 15 24
e 15 28
e 15 30
e 15 33
e 15 34
e 15 36
e 15 40
e 15 41
e 15 43
e 15 44
e 15 45
e 15 47
e 15 48
e 15 49
e 15 50
e 15 52
e 15 53
e 15 54
e 15 55
e 15 59
e 15 70
e 15 71
e 15 74
e 15 79
e 15 80
e 15 81
e 15 83
e 15 88
e 15 89
e 15 91
e 15 95
e 15 96
e 15 100
e 15 103
e 15 105
e 15 108
e 15 110
e 15 113
e 15 117
e 15 122
e 15 123
e 15 125
e 15 126
e 15 127
e 15 128
e 15 129
e 15 131
e 15 133
e 15 134
e 15 135
e 15 138
e 15 139
e 15 145
e 15 147
e 16 18
e 16 19
e 16 20
e 16 21
e 16 24
e 16 25
e 16 29
e 16 30
e 16 33
e 16 34
e 16 37
e 16 40
e 16 45
e 16 46
e 16 49
e 16 53
e 16 54
e 16 56
e 16 58
e 16 63
e 16 64
e 16 65
e 16 66
e 16 69
e 16 70
e 16 71
e 16 74
e 16 76
e 16 77
e 16 78
e 16 82
e 16 83
e 16 86
e 16 87
e 16 88
e 16 91
e 16 92
e 16 94
e 16 96
e 16 97
e 16 101
e 16 102
e 16 103
e 16 104
e 16 105
e 16 106
e 16 107
e 16 108
e 16 109
e 16 110
e 16 115
e 16 118
e 16 119
e 16 120
e 16 123
e 16 125
e 16 127
e 16 128
e 16 129
e 16 130
e 16 131
e 16 132
e 16 133
e 16 134
e 16 136
e 16 137
e 16 141
e 16 144
e 16 148
e 17 18
e 17 21
e 17 22
e 17 27
e 17 29
e 17 35
e 17 40
e 17 41
e 17 45
e 17 46
e 17 57
e 17 65
e 17 67
e 17 70
e 17 74
e 17 75
e 17 78
e 17 82
e 17 88
e 17 89
e 17 99
e 17 103
e 17 105
e 17 108
e 17 113
e 17 118
e 17 119
e 17 124
e 17 125
e 17 129
e 17 133
e 17 134
e 17 135
e 17 140
e 17 141
e 17 143
e 17 146
e 17 149
e 17 150
e 18 19
e 18 21
e 18 22
e 18 23
e 18 28
e 18 38
e 18 39
e 18 44
e 18 48
e 18 49
e 18 54
e 18 55
e 18 58
e 18 64
e 18 66
e 18 68
e 18 81
e 18 83
e 18 84
e 18 85
e 18 90
e 18 94
e 18 96
e 18 99
e 18 105
e 18 106
e 18 112
e 18 113
e 18 114
e 18 118
e 18 119
e 18 120
e 18 121
e 18 125
e 18 126
e 18 129
e 18 131
e 18 135
e 18 138
e 18 145
e 18 146
e 18 148
e 18 149
e 19 24
e 19 26
e 19 28
e 19 31
e 19 37
e 19 38
e 19 42
e 19 43
e 19 45
e 19 46
e 19 47
e 19 49
e 19 50
e 19 51
e 19 52
e 19 54
e 19 55
e 19 58
e 19 62
e 19 64
e 19 65
e 19 68
e 19 70
e 19 71
e 19 73
e 19 75
e 19 78
e 19 80
e 19 81
e 19 83
e 19 85
e 19 86
e 19 94
e 19 97
e 19 100
e 19 105
e 19 106
e 19 110
e 19 112
e 19 115
e 19 121
e 19 125
e 19 127
e 19 128
e 19 134
e 19 137
e 19 139
e 19 141
e 19 143
e 19 145
e 19 149
e 19 150
e 20 24
e 20 25
e 20 26
e 20 29
e 20 32
e 20 34
e 20 37
e 20 38
e 20 39
e 20 42
e 20 46
e 20 47
e 20 48
e 20 59
e 20 61
e 20 62
e 20 66
e 20 68
e 20 74
e 20 76
e 20 77
e 20 79
e 20 81
e 20 83
e 20 84
e 20 86
e 20 87
e 20 88
e 20 90
e 20 93
e 20 96
e 20 98
e 20 99
e 20 102
e 20 105
e 20 106
e 20 108
e 20 109
e 20 114
e 20 117
e 20 118
e 20 120
e 20 125
e 20 127
e 20 128
e 20 129
e 20 131
e 20 132
e 20 141
e 20 142
e 20 144
e 20 145
e 20 147
e 20 148
e 21 26
e 21 31
e 21 32
e 21 34
e 21 36
e 21 37
e 21 38
e 21 41
e 21 42
e 21 43
e 21 44
e 21 46
e 21 47
e 21 48
e 21 53
e 21 59
e 21 60
e 21 61
e 21 62
e 21 63
e 21 64
e 21 65
e 21 70
e 21 71
e 21 72
e 21 73
e 21 77
e 21 80
e 21 83
e 21 86
e 21 88
e 21 93
e 21 94
e 21 95
e 21 97
e 21 99
e 21 100
e 21 101
e 21 102
e 21 105
e 21 106
e 21 108
e 21 114
e 21 118
e 21 119
e 21 121
e 21 122
e 21 123
e 21 125
e 21 126
e 21 127
e 21 130
e 21 132
e 21 135
e 21 136
e 21 137
e 21 138
e 21 140
e 21 143
e 21 145
e 21 146
e 22 24
e 22 27
e 22 28
e 22 32
e 22 33
e 22 35
e 22 42
e 22 43
e 22 51
e 22 54
e 22 56
e 22 57
e 22 58
e 22 66
e 22 69
e 22 72
e 22 75
e 22 76
e 22 81
e 22 82
e 22 84
e 22 85
e 22 86
e 22 87
e 22 88
e 22 90
e 22 97
e 22 98
e 22 100
e 22 102
e 22 103
e 22 105
e 22 107
e 22 111
e 22 118
e 22 121
e 22 123
e 22 125
e 22 130
e 22 134
e 22 135
e 22 141
e 22 142
e 22 144
e 22 145
e 22 147
e 22 149
e 23 25
e 23 26
e 23 31
e 23 34
e 23 37
e 23 40
e 23 41
e 23 43
e 23 47
e 23 52
e 23 53
e 23 54
e 23 58
e 23 61
e 23 62
e 23 68
e 23 71
e 23 84
e 23 86
e 23 87
e 23 88
e 23 89
e 23 90
e 23 93
e 23 95
e 23 96
e 23 97
e 23 98
e 23 102
e 23 104
e 23 111
e 23 118
e 23 119
e 23 121
e 23 122
e 23 124
e 23 129
e 23 137
e 23 138
e 23 139
e 23 145
e 24 28
e 24 29
e 24 30
e 24 31
e 24 33
e 24 34
e 24 35
e 24 37
e 24 38
e 24 39
e 24 41
e 24 45
e 24 48
e 24 49
e 24 51
e 24 52
e 24 53
e 24 57
e 24 62
e 24 63
e 24 65
e 24 66
e 24 74
e 24 75
e 24 78
e 24 82
e 24 85
e 24 89
e 24 91
e 24 92
e 24 93
e 24 94
e 24 97
e 24 98
e 24 103
e 24 104
e 24 108
e 24 110
e 24 113
e 24 115
e 24 117
e 24 120
e 24 123
e 24 124
e 24 125
e 24 126
e 24 127
e 24 133
e 24 134
e 24 141
e 24 142
e 24 143
e 24 144
e 24 145
e 24 146
e 24 150
e 25 28
e 25 30
e 25 31
e 25 35
e 25 43
e 25 48
e 25 52
e 25 55
e 25 56
e 25 57
e 25 63
e 25 66
e 25 67
e 25 72
e 25 74
e 25 75
e 25 77
e 25 85
e 25 89
e 25 92
e 25 93
e 25 95
e 25 96
e 25 98
e 25 99
e 25 101
e 25 102
e 25 103
e 25 104
e 25 108
e 25 110
e 25 111
e 25 112
e 25 114
e 25 115
e 25 120
e 25 124
e 25 126
e 25 132
e 25 133
e 25 140
e 25 143
e 25 144
e 25 145
e 25 149
e 26 30
e 26 31
e 26 32
e 26 38
e 26 40
e 26 49
e 26 53
e 26 54
e 26 60
e 26 63
e 26 64
e 26 70
e 26 72
e 26 75
e 26 76
e 26 86
e 26 88
e 26 89
e 26 94
e 26 100
e 26 105
e 26 110
e 26 112
e 26 113
e 26 114
e 26 116
e 26 118
e 26 119
e 26 121
e 26 127
e 26 129
e 26 130
e 26 131
e 26 132
e 26 133
e 26 134
e 26 136
e 26 137
e 26 138
e 26 139
e 26 143
e 26 144
e 26 145
e 26 148
e 26 149
e 26 150
e 27 28
e 27 30
e 27 34
e 27 38
e 27 45
e 27 46
e 27 47
e 27 51
e 27 54
e 27 57
e 27 61
e 27 65
e 27 66
e 27 67
e 27 68
e 27 74
e 27 79
e 27 81
e 27 84
e 27 86
e 27 90
e 27 95
e 27 97
e 27 99
e 27 100
e 27 101
e 27 103
e 27 104
e 27 106
e 27 107
e 27 110
e 27 111
e 27 113
e 27 114
e 27 119
e 27 120
e 27 121
e 27 124
e 27 127
e 27 128
e 27 132
e 27 133
e 27 134
e 27 135
e 27 136
e 27 143
e 27 146
e 28 29
e 28 33
e 28 39
e 28 40
e 28 43
e 28 44
e 28 45
e 28 46
e 28 50
e 28 52
e 28 54
e 28 62
e 28 63
e 28 67
e 28 68
e 28 71
e 28 72
e 28 76
e 28 79
e 28 80
e 28 81
e 28 82
e 28 83
e 28 84
e 28 85
e 28 86
e 28 93
e 28 94
e 28 95
e 28 97
e 28 99
e 28 102
e 28 104
e 28 105
e 28 107
e 28 109
e 28 113
e 28 116
e 28 117
e 28 118
e 28 120
e 28 126
e 28 130
e 28 132
e 28 139
e 28 142
e 28 145
e 28 150
e 29 34
e 29 39
e 29 42
e 29 43
e 29 49
e 29 50
e 29 54
e 29 56
e 29 57
e 29 58
e 29 61
e 29 65
e 29 66
e 29 68
e 29 73
e 29 77
e 29 79
e 29 80
e 29 81
e 29 84
e 29 85
e 29 87
e 29 95
e 29 99
e 29 100
e 29 104
e 29 105
e 29 108
e 29 113
e 29 114
e 29 122
e 29 123
e 29 126
e 29 133
e 29 134
e 29 137
e 29 139
e 29 141
e 29 142
e 29 146
e 29 147
e 30 32
e 30 34
e 30 41
e 30 47
e 30 48
e 30 49
e 30 56
e 30 59
e 30 61
e 30 63
e 30 65
e 30 67
e 30 68
e 30 69
e 30 71
e 30 73
e 30 75
e 30 79
e 30 80
e 30 86
e 30 87
e 30 88
e 30 90
e 30 91
e 30 92
e 30 95
e 30 98
e 30 101
e 30 102
e 30 103
e 30 104
e 30 108
e 30 109
e 30 110
e 30 111
e 30 113
e 30 114
e 30 116
e 30 118
e 30 122
e 30 123
e 30 125
e 30 128
e 30 131
e 30 133
e 30 134
e 30 135
e 30 137
e 30 138
e 30 141
e 30 144
e 30 146
e 31 32
e 31 34
e 31 35
e 31 39
e 31 41
e 31 42
e 31 44
e 31 45
e 31 46
e 31 48
e 31 51
e 31 52
e 31 54
e 31 55
e 31 59
e 31 61
e 31 62
e 31 63
e 31 67
e 31 86
e 31 88
e 31 92
e 31 93
e 31 96
e 31 99
e 31 101
e 31 102
e 31 103
e 31 104
e 31 106
e 31 108
e 31 111
e 31 114
e 31 116
e 31 126
e 31 132
e 31 133
e 31 134
e 31 143
e 31 145
e 31 147
e 31 149
e 32 34
e 32 36
e 32 40
e 32 42
e 32 43
e 32 44
e 32 45
e 32 47
e 32 48
e 32 51
e 32 53
e 32 54
e 32 56
e 32 57
e 32 62
e 32 63
e 32 66
e 32 71
e 32 72
e 32 73
e 32 75
e 32 76
e 32 79
e 32 84
e 32 87
e 32 90
e 32 91
e 32 93
e 32 95
e 32 96
e 32 102
e 32 103
e 32 106
e 32 109
e 32 111
e 32 112
e 32 113
e 32 114
e 32 117
e 32 119
e 32 121
e 32 123
e 32 124
e 32 127
e 32 129
e 32 130
e 32 131
e 32 132
e 32 134
e 32 137
e 32 141
e 32 143
e 32 145
e 32 148
e 33 34
e 33 35
e 33 37
e 33 40
e 33 41
e 33 43
e 33 44
e 33 46
e 33 48
e 33 49
e 33 50
e 33 52
e 33 55
e 33 56
e 33 60
e 33 64
e 33 65
e 33 69
e 33 70
e 33 74
e 33 77
e 33 81
e 33 84
e 33 86
e 33 87
e 33 88
e 33 91
e 33 92
e 33 97
e 33 98
e 33 101
e 33 102
e 33 103
e 33 105
e 33 108
e 33 110
e 33 112
e 33 116
e 33 120
e 33 121
e 33 122
e 33 123
e 33 125
e 33 127
e 33 128
e 33 131
e 33 133
e 33 134
e 33 137
e 33 139
e 33 140
e 33 144
e 33 145
e 33 146
e 34 35
e 34 37
e 34 41
e 34 44
e 34 51
e 34 52
e 34 53
e 34 58
e 34 60
e 34 61
e 34 63
e 34 64
e 34 67
e 34 68
e 34 75
e 34 76
e 34 77
e 34 78
e 34 80
e 34 84
e 34 85
e 34 86
e 34 88
e 34 89
e 34 96
e 34 97
e 34 98
e 34 103
e 34 104
e 34 110
e 34 111
e 34 112
e 34 114
e 34 115
e 34 119
e 34 121
e 34 122
e 34 128
e 34 136
e 34 140
e 34 143
e 34 144
e 34 146
e 34 147
e 34 148
e 34 150
e 35 36
e 35 39
e 35 42
e 35 43
e 35 44
e 35 48
e 35 49
e 35 51
e 35 53
e 35 54
e 35 56
e 35 60
e 35 61
e 35 64
e 35 66
e 35 68
e 35 69
e 35 73
e 35 74
e 35 76
e 35 79
e 35 81
e 35 82
e 35 85
e 35 86
e 35 90
e 35 92
e 35 94
e 35 96
e 35 97
e 35 98
e 35 103
e 35 105
e 35 107
e 35 108
e 35 112
e 35 113
e 35 114
e 35 119
e 35 129
e 35 135
e 35 138
e 35 142
e 35 143
e 35 144
e 35 145
e 35 148
e 35 150
e 36 38
e 36 40
e 36 41
e 36 43
e 36 47
e 36 55
e 36 62
e 36 63
e 36 68
e 36 71
e 36 72
e 36 73
e 36 74
e 36 79
e 36 84
e 36 85
e 36 87
e 36 90
e 36 92
e 36 95
e 36 96
e 36 98
e 36 99
e 36 104
e 36 106
e 36 108
e 36 110
e 36 112
e 36 114
e 36 116
e 36 118
e 36 119
e 36 121
e 36 123
e 36 126
e 36 127
e 36 130
e 36 132
e 36 134
e 36 135
e 36 137
e 36 140
e 36 142
e 36 143
e 36 145
e 36 149
e 37 38
e 37 40
e 37 41
e 37 42
e 37 43
e 37 58
e 37 61
e 37 63
e 37 67
e 37 69
e 37 70
e 37 74
e 37 75
e 37 78
e 37 79
e 37 80
e 37 83
e 37 84
e 37 87
e 37 89
e 37 90
e 37 92
e 37 95
e 37 96
e 37 97
e 37 98
e 37 100
e 37 101
e 37 102
e 37 103
e 37 107
e 37 112
e 37 113
e 37 115
e 37 128
e 37 134
e 37 135
e 37 136
e 37 139
e 37 140
e 37 141
e 37 147
e 37 150
e 38 41
e 38 43
e 38 44
e 38 45
e 38 46
e 38 47
e 38 49
e 38 51
e 38 55
e 38 61
e 38 63
e 38 65
e 38 70
e 38 71
e 38 75
e 38 77
e 38 78
e 38 79
e 38 82
e 38 83
e 38 86
e 38 87
e 38 89
e 38 93
e 38 95
e 38 96
e 38 98
e 38 101
e 38 106
e 38 107
e 38 108
e 38 112
e 38 114
e 38 119
e 38 122
e 38 130
e 38 132
e 38 133
e 38 137
e 38 140
e 38 141
e 38 145
e 38 149
e 38 150
e 39 41
e 39 42
e 39 43
e 39 48
e 39 50
e 39 53
e 39 54
e 39 59
e 39 60
e 39 61
e 39 63
e 39 64
e 39 68
e 39 69
e 39 70
e 39 71
e 39 74
e 39 75
e 39 78
e 39 79
e 39 83
e 39 84
e 39 87
e 39 93
e 39 94
e 39 95
e 39 97
e 39 98
e 39 104
e 39 106
e 39 108
e 39 110
e 39 114
e 39 119
e 39 121
e 39 122
e 39 123
e 39 124
e 39 127
e 39 128
e 39 130
e 39 137
e 39 138
e 39 139
e 39 140
e 39 146
e 39 147
e 40 43
e 40 45
e 40 48
e 40 49
e 40 50
e 40 53
e 40 55
e 40 66
e 40 70
e 40 73
e 40 74
e 40 75
e 40 76
e 40 77
e 40 79
e 40 84
e 40 85
e 40 90
e 40 91
e 40 93
e 40 94
e 40 95
e 40 97
e 40 99
e 40 100
e 40 101
e 40 106
e 40 110
e 40 111
e 40 112
e 40 114
e 40 115
e 40 120
e 40 122
e 40 123
e 40 125
e 40 126
e 40 127
e 40 130
e 40 132
e 40 138
e 40 140
e 40 141
e 40 143
e 40 144
e 40 149
e 40 150
e 41 45
e 41 47
e 41 49
e 41 50
e 41 54
e 41 56
e 41 58
e 41 60
e 41 68
e 41 69
e 41 72
e 41 73
e 41 79
e 41 80
e 41 82
e 41 84
e 41 86
e 41 89
e 41 91
e 41 92
e 41 93
e 41 95
e 41 97
e 41 98
e 41 100
e 41 101
e 41 102
e 41 103
e 41 109
e 41 113
e 41 121
e 41 122
e 41 123
e 41 124
e 41 132
e 41 134
e 41 135
e 41 136
e 41 137
e 41 138
e 41 140
e 41 144
e 41 146
e 41 150
e 42 43
e 42 46
e 42 51
e 42 53
e 42 57
e 42 58
e 42 62
e 42 67
e 42 70
e 42 72
e 42 77
e 42 78
e 42 79
e 42 80
e 42 83
e 42 84
e 42 86
e 42 87
e 42 88
e 42 89
e 42 91
e 42 92
e 42 93
e 42 96
e 42 98
e 42 100
e 42 107
e 42 108
e 42 109
e 42 111
e 42 116
e 42 118
e 42 121
e 42 122
e 42 123
e 42 126
e 42 127
e 42 133
e 42 136
e 42 138
e 42 142
e 42 144
e 42 146
e 42 147
e 42 148
e 43 46
e 43 48
e 43 49
e 43 50
e 43 54
e 43 62
e 43 64
e 43 65
e 43 67
e 43 70
e 43 74
e 43 75
e 43 76
e 43 79
e 43 80
e 43 81
e 43 83
e 43 87
e 43 88
e 43 91
e 43 94
e 43 99
e 43 104
e 43 105
e 43 110
e 43 112
e 43 113
e 43 120
e 43 121
e 43 123
e 43 125
e 43 133
e 43 136
e 43 138
e 43 145
e 43 149
e 43 150
e 44 47
e 44 48
e 44 51
e 44 53
e 44 55
e 44 60
e 44 67
e 44 68
e 44 74
e 44 78
e 44 85
e 44 88
e 44 89
e 44 90
e 44 97
e 44 98
e 44 99
e 44 104
e 44 106
e 44 109
e 44 111
e 44 113
e 44 114
e 44 115
e 44 116
e 44 122
e 44 123
e 44 129
e 44 130
e 44 131
e 44 134
e 44 138
e 44 144
e 44 145
e 44 146
e 44 147
e 45 47
e 45 49
e 45 54
e 45 58
e 45 61
e 45 64
e 45 67
e 45 70
e 45 75
e 45 78
e 45 81
e 45 85
e 45 86
e 45 87
e 45 88
e 45 89
e 45 92
e 45 95
e 45 96
e 45 97
e 45 101
e 45 105
e 45 109
e 45 110
e 45 114
e 45 115
e 45 120
e 45 125
e 45 126
e 45 133
e 45 134
e 45 135
e 45 139
e 45 140
e 45 141
e 45 144
e 45 145
e 45 149
e 45 150
e 46 47
e 46 48
e 46 49
e 46 51
e 46 52
e 46 57
e 46 58
e 46 61
e 46 64
e 46 68
e 46 71
e 46 73
e 46 75
e 46 78
e 46 79
e 46 82
e 46 84
e 46 86
e 46 87
e 46 90
e 46 93
e 46 95
e 46 96
e 46 97
e 46 101
e 46 107
e 46 108
e 46 109
e 46 111
e 46 114
e 46 116
e 46 119
e 46 127
e 46 128
e 46 134
e 46 141
e 46 142
e 46 144
e 46 145
e 46 149
e 47 49
e 47 53
e 47 54
e 47 56
e 47 58
e 47 59
e 47 62
e 47 64
e 47 65
e 47 66
e 47 68
e 47 69
e 47 78
e 47 79
e 47 81
e 47 83
e 47 84
e 47 86
e 47 89
e 47 92
e 47 94
e 47 96
e 47 101
e 47 102
e 47 106
e 47 110
e 47 111
e 47 113
e 47 114
e 47 115
e 47 119
e 47 120
e 47 122
e 47 123
e 47 124
e 47 125
e 47 126
e 47 129
e 47 132
e 47 135
e 47 139
e 47 140
e 47 143
e 47 144
e 48 50
e 48 52
e 48 55
e 48 58
e 48 61
e 48 67
e 48 68
e 48 74
e 48 77
e 48 78
e 48 82
e 48 85
e 48 87
e 48 92
e 48 96
e 48 104
e 48 105
e 48 107
e 48 108
e 48 111
e 48 112
e 48 113
e 48 115
e 48 116
e 48 119
e 48 120
e 48 121
e 48 122
e 48 124
e 48 126
e 48 127
e 48 130
e 48 131
e 48 132
e 48 133
e 48 138
e 48 141
e 48 142
e 48 145
e 48 149
e 48 150
e 49 51
e 49 53
e 49 55
e 49 62
e 49 63
e 49 65
e 49 68
e 49 69
e 49 70
e 49 74
e 49 79
e 49 80
e 49 83
e 49 84
e 49 90
e 49 92
e 49 97
e 49 101
e 49 102
e 49 103
e 49 105
e 49 106
e 49 107
e 49 108
e 49 111
e 49 112
e 49 116
e 49 119
e 49 121
e 49 122
e 49 123
e 49 128
e 49 129
e 49 130
e 49 131
e 49 135
e 49 137
e 49 138
e 49 142
e 49 143
e 49 145
e 49 146
e 50 52
e 50 57
e 50 62
e 50 63
e 50 71
e 50 75
e 50 77
e 50 79
e 50 80
e 50 83
e 50 84
e 50 86
e 50 87
e 50 90
e 50 93
e 50 94
e 50 100
e 50 101
e 50 114
e 50 118
e 50 123
e 50 126
e 50 127
e 50 136
e 50 138
e 50 140
e 50 143
e 50 144
e 50 149
e 51 52
e 51 58
e 51 61
e 51 64
e 51 69
e 51 71
e 51 72
e 51 73
e 51 75
e 51 78
e 51 82
e 51 86
e 51 87
e 51 89
e 51 90
e 51 95
e 51 97
e 51 98
e 51 101
e 51 104
e 51 108
e 51 109
e 51 110
e 51 113
e 51 117
e 51 120
e 51 121
e 51 126
e 51 127
e 51 129
e 51 130
e 51 131
e 51 132
e 51 133
e 51 136
e 51 139
e 51 140
e 51 142
e 51 143
e 51 150
e 52 58
e 52 62
e 52 63
e 52 64
e 52 68
e 52 69
e 52 72
e 52 75
e 52 76
e 52 77
e 52 80
e 52 82
e 52 83
e 52 84
e 52 88
e 52 90
e 52 91
e 52 94
e 52 95
e 52 98
e 52 105
e 52 107
e 52 108
e 52 117
e 52 118
e 52 120
e 52 124
e 52 125
e 52 127
e 52 129
e 52 134
e 52 138
e 52 140
e 52 143
e 52 147
e 52 148
e 53 58
e 53 61
e 53 62
e 53 65
e 53 66
e 53 67
e 53 72
e 53 73
e 53 75
e 53 81
e 53 84
e 53 88
e 53 90
e 53 92
e 53 97
e 53 102
e 53 105
e 53 107
e 53 108
e 53 113
e 53 114
e 53 118
e 53 120
e 53 121
e 53 126
e 53 129
e 53 130
e 53 135
e 53 136
e 53 144
e 53 145
e 53 147
e 53 149
e 54 56
e 54 57
e 54 58
e 54 61
e 54 62
e 54 63
e 54 69
e 54 73
e 54 74
e 54 75
e 54 83
e 54 84
e 54 86
e 54 87
e 54 92
e 54 95
e 54 96
e 54 98
e 54 100
e 54 108
e 54 109
e 54 110
e 54 112
e 54 114
e 54 116
e 54 118
e 54 119
e 54 121
e 54 123
e 54 124
e 54 125
e 54 127
e 54 129
e 54 130
e 54 133
e 54 135
e 54 137
e 54 138
e 54 140
e 54 143
e 54 145
e 54 146
e 55 56
e 55 57
e 55 62
e 55 64
e 55 66
e 55 68
e 55 69
e 55 70
e 55 71
e 55 76
e 55 79
e 55 80
e 55 81
e 55 82
e 55 85
e 55 86
e 55 88
e 55 90
e 55 93
e 55 97
e 55 98
e 55 100
e 55 101
e 55 103
e 55 104
e 55 110
e 55 115
e 55 120
e 55 125
e 55 129
e 55 131
e 55 132
e 55 133
e 55 135
e 55 137
e 55 139
e 55 141
e 55 148
e 55 150
e 56 59
e 56 60
e 56 62
e 56 64
e 56 65
e 56 72
e 56 74
e 56 77
e 56 83
e 56 84
e 56 85
e 56 86
e 56 88
e 56 90
e 56 91
e 56 96
e 56 101
e 56 102
e 56 105
e 56 112
e 56 121
e 56 122
e 56 125
e 56 127
e 56 130
e 56 131
e 56 133
e 56 135
e 56 138
e 56 143
e 56 145
e 56 146
e 56 147
e 56 150
e 57 62
e 57 63
e 57 66
e 57 69
e 57 70
e 57 71
e 57 73
e 57 74
e 57 76
e 57 80
e 57 84
e 57 85
e 57 91
e 57 92
e 57 97
e 57 99
e 57 100
e 57 103
e 57 104
e 57 107
e 57 108
e 57 112
e 57 113
e 57 114
e 57 116
e 57 117
e 57 119
e 57 120
e 57 121
e 57 122
e 57 126
e 57 128
e 57 129
e 57 131
e 57 132
e 57 133
e 57 134
e 57 136
e 57 138
e 57 139
e 57 142
e 57 144
e 57 145
e 57 146
e 57 147
e 57 148
e 57 149
e 57 150
e 58 59
e 58 62
e 58 64
e 58 66
e 58 68
e 58 69
e 58 71
e 58 75
e 58 77
e 58 78
e 58 80
e 58 84
e 58 86
e 58 87
e 58 89
e 58 90
e 58 92
e 58 96
e 58 99
e 58 100
e 58 104
e 58 106
e 58 110
e 58 113
e 58 117
e 58 119
e 58 120
e 58 123
e 58 130
e 58 132
e 58 133
e 58 134
e 58 141
e 58 143
e 58 147
e 58 148
e 59 67
e 59 72
e 59 76
e 59 81
e 59 85
e 59 87
e 59 88
e 59 89
e 59 91
e 59 93
e 59 97
e 59 100
e 59 101
e 59 102
e 59 105
e 59 108
e 59 114
e 59 115
e 59 122
e 59 123
e 59 125
e 59 127
e 59 128
e 59 129
e 59 131
e 59 136
e 59 137
e 59 138
e 59 139
e 59 142
e 59 144
e 59 146
e 59 148
e 59 150
e 60 63
e 60 64
e 60 66
e 60 67
e 60 68
e 60 71
e 60 73
e 60 74
e 60 75
e 60 76
e 60 83
e 60 84
e 60 85
e 60 87
e 60 89
e 60 94
e 60 95
e 60 97
e 60 99
e 60 101
e 60 102
e 60 106
e 60 112
e 60 116
e 60 126
e 60 128
e 60 131
e 60 133
e 60 136
e 60 137
e 60 138
e 60 139
e 60 140
e 60 142
e 60 146
e 60 148
e 60 150
e 61 63
e 61 65
e 61 68
e 61 74
e 61 77
e 61 78
e 61 80
e 61 85
e 61 86
e 61 87
e 61 91
e 61 92
e 61 93
e 61 95
e 61 97
e 61 101
e 61 102
e 61 105
e 61 109
e 61 112
e 61 113
e 61 116
e 61 118
e 61 123
e 61 126
e 61 129
e 61 130
e 61 131
e 61 136
e 61 137
e 61 139
e 61 142
e 61 144
e 61 145
e 61 146
e 61 147
e 61 149
e 61 150
e 62 63
e 62 64
e 62 67
e 62 71
e 62 74
e 62 76
e 62 78
e 62 79
e 62 85
e 62 86
e 62 87
e 62 91
e 62 92
e 62 94
e 62 95
e 62 96
e 62 100
e 62 104
e 62 107
e 62 112
e 62 114
e 62 116
e 62 120
e 62 121
e 62 122
e 62 124
e 62 126
e 62 127
e 62 129
e 62 131
e 62 132
e 62 133
e 62 135
e 62 136
e 62 139
e 62 140
e 62 144
e 62 145
e 62 149
e 62 150
e 63 66
e 63 67
e 63 71
e 63 75
e 63 78
e 63 83
e 63 87
e 63 89
e 63 92
e 63 97
e 63 99
e 63 109
e 63 111
e 63 112
e 63 116
e 63 117
e 63 118
e 63 120
e 63 126
e 63 133
e 63 137
e 63 138
e 63 139
e 63 142
e 63 150
e 64 65
e 64 66
e 64 67
e 64 68
e 64 71
e 64 76
e 64 78
e 64 79
e 64 82
e 64 85
e 64 91
e 64 92
e 64 94
e 64 96
e 64 98
e 64 101
e 64 104
e 64 105
e 64 106
e 64 107
e 64 114
e 64 115
e 64 116
e 64 118
e 64 120
e 64 122
e 64 124
e 64 126
e 64 128
e 64 136
e 64 142
e 64 143
e 64 144
e 64 145
e 64 146
e 64 148
e 64 150
e 65 66
e 65 67
e 65 68
e 65 70
e 65 71
e 65 73
e 65 74
e 65 75
e 65 80
e 65 83
e 65 85
e 65 86
e 65 88
e 65 91
e 65 93
e 65 96
e 65 97
e 65 102
e 65 104
e 65 112
e 65 113
e 65 114
e 65 115
e 65 116
e 65 118
e 65 134
e 65 137
e 65 138
e 65 147
e 65 148
e 65 149
e 66 67
e 66 68
e 66 75
e 66 76
e 66 77
e 66 81
e 66 82
e 66 83
e 66 86
e 66 89
e 66 90
e 66 96
e 66 102
e 66 103
e 66 105
e 66 106
e 66 109
e 66 111
e 66 114
e 66 115
e 66 116
e 66 118
e 66 119
e 66 128
e 66 129
e 66 130
e 66 132
e 66 133
e 66 134
e 66 136
e 66 137
e 66 143
e 66 146
e 66 147
e 66 148
e 66 149
e 67 68
e 67 71
e 67 72
e 67 73
e 67 79
e 67 81
e 67 84
e 67 86
e 67 89
e 67 90
e 67 91
e 67 93
e 67 94
e 67 95
e 67 96
e 67 99
e 67 100
e 67 102
e 67 105
e 67 106
e 67 109
e 67 110
e 67 115
e 67 118
e 67 120
e 67 122
e 67 124
e 67 126
e 67 127
e 67 130
e 67 134
e 67 136
e 67 138
e 67 139
e 67 140
e 67 144
e 67 146
e 67 147
e 67 149
e 67 150
e 68 79
e 68 80
e 68 82
e 68 85
e 68 89
e 68 90
e 68 96
e 68 97
e 68 102
e 68 103
e 68 108
e 68 111
e 68 114
e 68 116
e 68 120
e 68 128
e 68 131
e 68 134
e 68 136
e 68 139
e 68 141
e 68 144
e 68 145
e 68 148
e 68 150
e 69 72
e 69 75
e 69 77
e 69 79
e 69 80
e 69 81
e 69 82
e 69 83
e 69 86
e 69 87
e 69 89
e 69 93
e 69 94
e 69 95
e 69 98
e 69 100
e 69 101
e 69 102
e 69 103
e 69 106
e 69 108
e 69 110
e 69 112
e 69 115
e 69 119
e 69 121
e 69 123
e 69 124
e 69 126
e 69 135
e 69 138
e 69 141
e 69 142
e 69 144
e 69 146
e 70 71
e 70 72
e 70 77
e 70 78
e 70 80
e 70 82
e 70 83
e 70 84
e 70 88
e 70 89
e 70 90
e 70 91
e 70 92
e 70 95
e 70 96
e 70 97
e 70 99
e 70 101
e 70 104
e 70 105
e 70 106
e 70 107
e 70 111
e 70 112
e 70 115
e 70 128
e 70 132
e 70 133
e 70 135
e 70 136
e 70 138
e 70 141
e 70 142
e 70 145
e 70 146
e 70 147
e 70 148
e 71 73
e 71 77
e 71 78
e 71 80
e 71 83
e 71 85
e 71 87
e 71 90
e 71 91
e 71 93
e 71 94
e 71 104
e 71 106
e 71 111
e 71 112
e 71 116
e 71 117
e 71 118
e 71 120
e 71 122
e 71 123
e 71 130
e 71 132
e 71 134
e 71 136
e 71 141
e 71 142
e 71 144
e 71 146
e 71 147
e 71 149
e 71 150
e 72 74
e 72 75
e 72 76
e 72 78
e 72 83
e 72 96
e 72 97
e 72 103
e 72 106
e 72 107
e 72 108
e 72 111
e 72 114
e 72 117
e 72 118
e 72 120
e 72 122
e 72 123
e 72 126
e 72 127
e 72 128
e 72 131
e 72 132
e 72 134
e 72 135
e 72 136
e 72 137
e 72 139
e 72 140
e 72 142
e 72 143
e 72 150
e 73 81
e 73 84
e 73 86
e 73 87
e 73 89
e 73 91
e 73 93
e 73 98
e 73 99
e 73 102
e 73 107
e 73 108
e 73 117
e 73 121
e 73 128
e 73 132
e 73 138
e 73 142
e 73 148
e 73 149
e 74 84
e 74 85
e 74 86
e 74 89
e 74 92
e 74 94
e 74 97
e 74 98
e 74 99
e 74 101
e 74 102
e 74 106
e 74 107
e 74 108
e 74 110
e 74 111
e 74 112
e 74 113
e 74 118
e 74 119
e 74 122
e 74 124
e 74 127
e 74 128
e 74 130
e 74 131
e 74 132
e 74 135
e 74 137
e 74 139
e 74 140
e 74 141
e 74 142
e 74 144
e 74 145
e 74 147
e 74 148
e 74 149
e 74 150
e 75 76
e 75 79
e 75 81
e 75 84
e 75 85
e 75 87
e 75 90
e 75 92
e 75 93
e 75 95
e 75 96
e 75 98
e 75 99
e 75 100
e 75 103
e 75 105
e 75 109
e 75 110
e 75 112
e 75 117
e 75 122
e 75 123
e 75 125
e 75 126
e 75 128
e 75 132
e 75 135
e 75 137
e 75 139
e 75 144
e 75 146
e 75 148
e 75 150
e 76 78
e 76 82
e 76 89
e 76 90
e 76 91
e 76 92
e 76 93
e 76 94
e 76 103
e 76 104
e 76 107
e 76 112
e 76 114
e 76 115
e 76 117
e 76 121
e 76 122
e 76 126
e 76 128
e 76 130
e 76 135
e 76 138
e 76 139
e 76 140
e 76 141
e 76 142
e 76 145
e 76 146
e 76 148
e 76 150
e 77 81
e 77 85
e 77 86
e 77 90
e 77 96
e 77 100
e 77 102
e 77 105
e 77 108
e 77 112
e 77 113
e 77 116
e 77 118
e 77 119
e 77 120
e 77 121
e 77 124
e 77 126
e 77 128
e 77 129
e 77 130
e 77 131
e 77 134
e 77 136
e 77 138
e 77 142
e 77 147
e 77 150
e 78 85
e 78 88
e 78 92
e 78 95
e 78 99
e 78 104
e 78 108
e 78 111
e 78 113
e 78 114
e 78 115
e 78 117
e 78 119
e 78 120
e 78 123
e 78 127
e 78 129
e 78 132
e 78 133
e 78 135
e 78 136
e 78 138
e 78 139
e 78 140
e 78 141
e 78 142
e 78 143
e 78 147
e 78 148
e 79 84
e 79 85
e 79 87
e 79 89
e 79 93
e 79 100
e 79 101
e 79 103
e 79 106
e 79 108
e 79 109
e 79 114
e 79 116
e 79 117
e 79 119
e 79 124
e 79 126
e 79 127
e 79 130
e 79 132
e 79 137
e 79 139
e 79 140
e 79 141
e 79 143
e 79 144
e 79 147
e 80 84
e 80 86
e 80 90
e 80 91
e 80 92
e 80 93
e 80 94
e 80 96
e 80 99
e 80 104
e 80 107
e 80 108
e 80 109
e 80 110
e 80 111
e 80 113
e 80 115
e 80 117
e 80 118
e 80 120
e 80 121
e 80 122
e 80 123
e 80 127
e 80 128
e 80 129
e 80 132
e 80 133
e 80 135
e 80 138
e 80 144
e 80 145
e 80 147
e 80 148
e 81 87
e 81 90
e 81 91
e 81 92
e 81 93
e 81 94
e 81 95
e 81 102
e 81 103
e 81 105
e 81 106
e 81 113
e 81 119
e 81 120
e 81 123
e 81 124
e 81 125
e 81 127
e 81 129
e 81 130
e 81 135
e 81 136
e 81 140
e 81 142
e 81 145
e 82 85
e 82 86
e 82 91
e 82 93
e 82 94
e 82 96
e 82 97
e 82 98
e 82 99
e 82 100
e 82 102
e 82 104
e 82 109
e 82 110
e 82 111
e 82 112
e 82 117
e 82 118
e 82 121
e 82 123
e 82 126
e 82 127
e 82 128
e 82 129
e 82 130
e 82 131
e 82 132
e 82 134
e 82 136
e 82 140
e 82 141
e 82 142
e 82 145
e 82 146
e 82 147
e 83 84
e 83 85
e 83 86
e 83 89
e 83 90
e 83 93
e 83 94
e 83 95
e 83 96
e 83 98
e 83 100
e 83 102
e 83 104
e 83 107
e 83 108
e 83 110
e 83 111
e 83 113
e 83 114
e 83 115
e 83 116
e 83 121
e 83 122
e 83 132
e 83 135
e 83 139
e 83 140
e 83 141
e 83 143
e 83 144
e 83 147
e 83 148
e 84 87
e 84 88
e 84 90
e 84 92
e 84 94
e 84 95
e 84 96
e 84 97
e 84 105
e 84 107
e 84 109
e 84 110
e 84 111
e 84 116
e 84 117
e 84 118
e 84 119
e 84 120
e 84 122
e 84 127
e 84 129
e 84 133
e 84 134
e 84 135
e 84 141
e 84 144
e 84 146
e 84 150
e 85 86
e 85 90
e 85 91
e 85 95
e 85 96
e 85 98
e 85 107
e 85 109
e 85 110
e 85 111
e 85 113
e 85 115
e 85 116
e 85 120
e 85 123
e 85 128
e 85 131
e 85 132
e 85 134
e 85 139
e 85 141
e 85 146
e 85 149
e 85 150
e 86 88
e 86 90
e 86 96
e 86 99
e 86 102
e 86 104
e 86 106
e 86 109
e 86 110
e 86 112
e 86 114
e 86 115
e 86 116
e 86 117
e 86 120
e 86 121
e 86 123
e 86 124
e 86 125
e 86 131
e 86 132
e 86 135
e 86 137
e 86 139
e 86 140
e 86 141
e 86 143
e 86 146
e 86 147
e 86 148
e 86 150
e 87 92
e 87 93
e 87 94
e 87 95
e 87 97
e 87 99
e 87 101
e 87 104
e 87 106
e 87 107
e 87 113
e 87 114
e 87 118
e 87 119
e 87 121
e 87 125
e 87 126
e 87 127
e 87 129
e 87 131
e 87 132
e 87 133
e 87 137
e 87 142
e 87 143
e 87 145
e 87 150
e 88 90
e 88 100
e 88 103
e 88 104
e 88 107
e 88 109
e 88 110
e 88 117
e 88 119
e 88 123
e 88 125
e 88 126
e 88 128
e 88 129
e 88 131
e 88 132
e 88 134
e 88 135
e 88 137
e 88 138
e 88 139
e 88 142
e 88 145
e 89 90
e 89 93
e 89 95
e 89 96
e 89 102
e 89 104
e 89 106
e 89 109
e 89 110
e 89 111
e 89 113
e 89 116
e 89 117
e 89 119
e 89 121
e 89 123
e 89 130
e 89 131
e 89 143
e 89 145
e 89 146
e 89 147
e 89 148
e 89 150
e 90 92
e 90 94
e 90 96
e 90 98
e 90 99
e 90 104
e 90 105
e 90 107
e 90 108
e 90 109
e 90 110
e 90 112
e 90 114
e 90 118
e 90 123
e 90 124
e 90 132
e 90 137
e 90 138
e 90 139
e 90 141
e 90 142
e 90 146
e 90 148
e 90 149
e 91 93
e 91 94
e 91 95
e 91 97
e 91 100
e 91 102
e 91 104
e 91 105
e 91 107
e 91 108
e 91 109
e 91 110
e 91 111
e 91 113
e 91 115
e 91 127
e 91 128
e 91 129
e 91 130
e 91 132
e 91 133
e 91 135
e 91 139
e 91 140
e 91 147
e 91 148
e 91 150
e 92 93
e 92 96
e 92 98
e 92 106
e 92 107
e 92 110
e 92 115
e 92 116
e 92 118
e 92 120
e 92 124
e 92 129
e 92 130
e 92 133
e 92 136
e 92 137
e 92 139
e 92 141
e 92 144
e 92 146
e 92 148
e 93 102
e 93 103
e 93 105
e 93 106
e 93 111
e 93 115
e 93 118
e 93 119
e 93 123
e 93 126
e 93 127
e 93 128
e 93 129
e 93 133
e 93 135
e 93 139
e 93 140
e 93 143
e 93 146
e 93 147
e 93 149
e 94 95
e 94 98
e 94 99
e 94 100
e 94 103
e 94 104
e 94 107
e 94 108
e 94 116
e 94 117
e 94 118
e 94 119
e 94 127
e 94 128
e 94 130
e 94 145
e 95 96
e 95 99
e 95 100
e 95 103
e 95 105
e 95 107
e 95 108
e 95 113
e 95 115
e 95 121
e 95 123
e 95 125
e 95 127
e 95 133
e 95 135
e 95 140
e 95 144
e 95 145
e 95 146
e 95 147
e 95 149
e 96 99
e 96 111
e 96 112
e 96 113
e 96 115
e 96 119
e 96 126
e 96 127
e 96 128
e 96 131
e 96 132
e 96 136
e 96 139
e 96 143
e 96 147
e 96 150
e 97 98
e 97 101
e 97 105
e 97 107
e 97 108
e 97 109
e 97 112
e 97 114
e 97 116
e 97 117
e 97 118
e 97 120
e 97 130
e 97 132
e 97 133
e 97 136
e 97 142
e 97 145
e 97 146
e 98 101
e 98 106
e 98 107
e 98 111
e 98 112
e 98 114
e 98 117
e 98 118
e 98 119
e 98 124
e 98 125
e 98 126
e 98 127
e 98 128
e 98 131
e 98 132
e 98 136
e 98 142
e 98 144
e 98 146
e 98 148
e 98 149
e 98 150
e 99 104
e 99 105
e 99 106
e 99 112
e 99 114
e 99 115
e 99 118
e 99 121
e 99 125
e 99 130
e 99 132
e 99 133
e 99 136
e 99 139
e 99 140
e 99 144
e 99 149
e 100 107
e 100 108
e 100 115
e 100 116
e 100 117
e 100 120
e 100 122
e 100 129
e 100 132
e 100 135
e 100 136
e 100 138
e 100 139
e 100 142
e 100 147
e 101 102
e 101 104
e 101 105
e 101 106
e 101 107
e 101 109
e 101 111
e 101 115
e 101 119
e 101 120
e 101 123
e 101 128
e 101 132
e 101 133
e 101 135
e 101 136
e 101 138
e 101 140
e 101 141
e 101 146
e 102 104
e 102 108
e 102 115
e 102 116
e 102 119
e 102 123
e 102 124
e 102 126
e 102 127
e 102 130
e 102 133
e 102 134
e 102 136
e 102 140
e 102 142
e 102 146
e 103 106
e 103 108
e 103 112
e 103 114
e 103 122
e 103 123
e 103 124
e 103 125
e 103 127
e 103 128
e 103 129
e 103 130
e 103 131
e 103 134
e 103 135
e 103 137
e 103 138
e 103 141
e 103 143
e 103 145
e 103 146
e 103 147
e 104 105
e 104 106
e 104 108
e 104 110
e 104 113
e 104 114
e 104 115
e 104 120
e 104 124
e 104 127
e 104 128
e 104 130
e 104 131
e 104 134
e 104 135
e 104 136
e 104 139
e 104 140
e 104 141
e 104 145
e 104 146
e 105 106
e 105 115
e 105 117
e 105 124
e 105 126
e 105 127
e 105 131
e 105 132
e 105 135
e 105 136
e 105 141
e 105 142
e 105 145
e 105 146
e 105 148
e 105 149
e 106 113
e 106 114
e 106 118
e 106 121
e 106 129
e 106 130
e 106 131
e 106 136
e 106 138
e 106 141
e 106 144
e 106 145
e 107 110
e 107 113
e 107 118
e 107 120
e 107 123
e 107 124
e 107 126
e 107 128
e 107 131
e 107 133
e 107 135
e 107 137
e 107 143
e 107 144
e 107 148
e 108 109
e 108 114
e 108 117
e 108 120
e 108 122
e 108 123
e 108 125
e 108 126
e 108 128
e 108 129
e 108 131
e 108 132
e 108 134
e 108 136
e 108 140
e 108 146
e 108 149
e 109 110
e 109 114
e 109 115
e 109 124
e 109 125
e 109 126
e 109 127
e 109 130
e 109 131
e 109 137
e 109 138
e 109 139
e 109 140
e 109 142
e 109 143
e 109 144
e 109 147
e 110 111
e 110 112
e 110 113
e 110 116
e 110 117
e 110 119
e 110 122
e 110 123
e 110 124
e 110 128
e 110 131
e 110 132
e 110 137
e 110 138
e 110 143
e 110 147
e 110 149
e 110 150
e 111 112
e 111 113
e 111 115
e 111 116
e 111 117
e 111 119
e 111 122
e 111 124
e 111 131
e 111 143
e 111 144
e 111 145
e 111 146
e 111 148
e 112 115
e 112 117
e 112 119
e 112 120
e 112 126
e 112 132
e 112 137
e 112 138
e 112 139
e 112 145
e 112 147
e 112 148
e 112 149
e 113 114
e 113 115
e 113 116
e 113 118
e 113 119
e 113 121
e 113 123
e 113 124
e 113 125
e 113 126
e 113 129
e 113 130
e 113 133
e 113 135
e 113 136
e 113 138
e 113 140
e 113 141
e 113 145
e 113 146
e 113 150
e 114 116
e 114 117
e 114 118
e 114 121
e 114 124
e 114 125
e 114 127
e 114 137
e 114 139
e 114 140
e 114 144
e 114 146
e 114 148
e 114 149
e 114 150
e 115 116
e 115 117
e 115 118
e 115 120
e 115 123
e 115 124
e 115 125
e 115 126
e 115 128
e 115 131
e 115 134
e 115 135
e 115 136
e 115 138
e 115 142
e 115 147
e 116 118
e 116 121
e 116 122
e 116 123
e 116 124
e 116 133
e 116 135
e 116 136
e 116 138
e 116 139
e 116 141
e 116 142
e 116 144
e 116 145
e 116 147
e 116 148
e 117 119
e 117 121
e 117 124
e 117 125
e 117 127
e 117 128
e 117 129
e 117 130
e 117 131
e 117 132
e 117 134
e 117 137
e 117 138
e 117 139
e 117 145
e 117 146
e 117 148
e 118 119
e 118 120
e 118 123
e 118 124
e 118 126
e 118 130
e 118 131
e 118 132
e 118 136
e 118 138
e 118 141
e 118 143
e 118 146
e 118 149
e 118 150
e 119 124
e 119 127
e 119 128
e 119 130
e 119 131
e 119 132
e 119 133
e 119 140
e 119 142
e 119 143
e 119 148
e 119 149
e 119 150
e 120 121
e 120 122
e 120 126
e 120 127
e 120 128
e 120 129
e 120 133
e 120 134
e 120 136
e 120 137
e 120 140
e 120 142
e 120 145
e 120 147
e 120 150
e 121 123
e 121 126
e 121 129
e 121 130
e 121 131
e 121 132
e 121 135
e 121 136
e 121 137
e 121 139
e 121 140
e 121 141
e 121 145
e 121 146
e 121 148
e 121 149
e 122 123
e 122 124
e 122 126
e 122 129
e 122 136
e 122 137
e 122 138
e 122 140
e 122 142
e 122 150
e 123 124
e 123 125
e 123 126
e 123 127
e 123 128
e 123 130
e 123 131
e 123 132
e 123 133
e 123 138
e 123 143
e 123 144
e 123 149
e 124 126
e 124 127
e 124 128
e 124 132
e 124 133
e 124 136
e 124 137
e 124 138
e 124 139
e 124 140
e 124 150
e 125 129
e 125 130
e 125 132
e 125 133
e 125 135
e 125 142
e 125 143
e 125 144
e 125 145
e 126 127
e 126 131
e 126 134
e 126 135
e 126 136
e 126 137
e 126 140
e 126 145
e 126 146
e 126 148
e 126 150
e 127 134
e 127 137
e 127 145
e 127 148
e 127 149
e 128 131
e 128 135
e 128 137
e 128 138
e 128 139
e 128 143
e 128 148
e 128 149
e 128 150
e 129 130
e 129 133
e 129 135
e 129 136
e 129 137
e 129 139
e 129 148
e 129 150
e 130 131
e 130 132
e 130 135
e 130 143
e 130 144
e 130 146
e 130 148
e 131 132
e 131 134
e 131 138
e 131 139
e 131 143
e 131 145
e 131 147
e 131 149
e 131 150
e 132 134
e 132 137
e 132 139
e 132 140
e 132 142
e 132 143
e 132 147
e 133 134
e 133 135
e 133 139
e 133 140
e 133 141
e 133 142
e 133 147
e 133 148
e 133 149
e 134 137
e 134 141
e 134 147
e 134 150
e 135 138
e 135 139
e 135 141
e 135 145
e 136 144
e 136 150
e 137 138
e 137 140
e 137 141
e 137 142
e 137 144
e 137 145
e 137 150
e 138 140
e 138 142
e 138 144
e 138 146
e 138 148
e 138 149
e 138 150
e 139 142
e 139 143
e 139 145
e 139 147
e 139 148
e 139 149
e 140 142
e 140 144
e 140 145
e 140 147
e 141 142
e 141 147
e 142 144
e 142 145
e 142 149
e 143 144
e 144 145
e 144 147
e 144 148
e 144 150
e 145 146
e 145 147
e 145 148
e 145 150
e 147 149
e 149 150
